NAME : eil51.464108.tour
COMMENT : Cost = 0_464108
COMMENT : Found by LKH [Keld Helsgaun] Thu Nov 16 19:18:34 2017
TYPE : TOUR
DIMENSION : 53
TOUR_SECTION
1
22
2
16
50
9
30
34
21
29
20
35
36
3
28
31
26
8
52
51
46
12
47
17
37
44
15
45
33
39
10
49
5
38
11
32
53
27
6
18
4
42
19
40
41
13
25
14
24
43
7
23
48
-1
EOF
